SATISFIABLE
# Atoms: 31
# Actions: 80
Trying with 2 states
# Atoms: 31
# Actions: 80
Cumulated solver time: 0.028620
Trying with 3 states
# Atoms: 31
# Actions: 80
Cumulated solver time: 0.041326
Trying with 4 states
# Atoms: 31
# Actions: 80
Cumulated solver time: 0.049140
